Minimize
	value: tt

Subject to
tt + 1000 s_1_1 > 0.0
tt - t_1_1 - 1002.425019 s_1_1  + 1.212509 s_1_8  + 1.212509 s_1_7  > -998.546400
tt + 1000 s_2_1 > 0.0
tt - t_2_1 - 1002.408768 s_2_1  + 1.204384 s_2_8  + 1.204384 s_2_7  > -990.587103
tt + 1000 s_1_2 > 0.0
tt - t_1_2 - 1001.212509 s_1_2  + 1.212509 s_1_7  > -998.517622
tt + 1000 s_2_2 > 0.0
tt - t_2_2 - 1001.204384 s_2_2  + 1.204384 s_2_7  > -991.173915
tt + 1000 s_1_3 > 0.0
tt - t_1_3 - 1002.425019 s_1_3  + 1.212509 s_1_8  + 1.212509 s_1_7  > -999.647300
tt + 1000 s_2_3 > 0.0
tt - t_2_3 - 1002.408768 s_2_3  + 1.204384 s_2_8  + 1.204384 s_2_7  > -998.029143
tt + 1000 s_1_4 > 0.0
tt - t_1_4 - 1001.212509 s_1_4  + 1.212509 s_1_7  > -999.371122
tt + 1000 s_2_4 > 0.0
tt - t_2_4 - 1001.204384 s_2_4  + 1.204384 s_2_7  > -997.241018
tt + 1000 s_1_5 > 0.0
tt - t_1_5 - 1001.212509 s_1_5  + 1.212509 s_1_8  > -999.456200
tt + 1000 s_2_5 > 0.0
tt - t_2_5 - 1001.204384 s_2_5  + 1.204384 s_2_8  > -995.598554
tt + 1000 s_1_6 > 0.0
tt - t_1_6 - 1007.275057 s_1_6  + 1.212509 s_1_3  + 1.212509 s_1_2  + 1.212509 s_1_4  + 1.212509 s_1_5  + 1.212509 s_1_1  + 1.212509 s_1_7  > -999.551800
tt + 1000 s_2_6 > 0.0
tt - t_2_6 - 1007.226304 s_2_6  + 1.204384 s_2_3  + 1.204384 s_2_2  + 1.204384 s_2_4  + 1.204384 s_2_5  + 1.204384 s_2_1  + 1.204384 s_2_7  > -998.585429
tt + 1000 s_1_7 > 0.0
tt - t_1_7 - 1000.000000 s_1_7  > -998.314900
tt + 1000 s_2_7 > 0.0
tt - t_2_7 - 1000.000000 s_2_7  > -996.555557
tt + 1000 s_1_8 > 0.0
tt - t_1_8 - 1000.000000 s_1_8  > -998.649500
tt + 1000 s_2_8 > 0.0
tt - t_2_8 - 1000.000000 s_2_8  > -996.611856
s_1_1 + s_2_1 = 1
s_1_2 + s_2_2 = 1
s_1_3 + s_2_3 = 1
s_1_4 + s_2_4 = 1
s_1_5 + s_2_5 = 1
s_1_6 + s_2_6 = 1
s_1_7 + s_2_7 = 1
s_1_8 + s_2_8 = 1
s_1_1 + s_1_2 + 1000 r_1_1_2 >= 2
- s_1_1 - s_1_2 - 1000 r_1_1_2 >= -1001
t_1_1 - t_1_2 - 1000.000000 u_1_1_2 - 1.212509 s_1_2  + 1.212509 s_1_7  + 2000.000000 r_1_1_2 > -998.517622
s_2_1 + s_2_2 + 1000 r_2_1_2 >= 2
- s_2_1 - s_2_2 - 1000 r_2_1_2 >= -1001
t_2_1 - t_2_2 - 1000.000000 u_2_1_2 - 1.204384 s_2_2  + 1.204384 s_2_7  + 2000.000000 r_2_1_2 > -991.173915
s_1_1 + s_1_3 + 1000 r_1_1_3 >= 2
- s_1_1 - s_1_3 - 1000 r_1_1_3 >= -1001
t_1_1 - t_1_3 - 1000.000000 u_1_1_3 - 2.425019 s_1_3  + 1.212509 s_1_8  + 1.212509 s_1_7  + 2000.000000 r_1_1_3 > -999.647300
s_2_1 + s_2_3 + 1000 r_2_1_3 >= 2
- s_2_1 - s_2_3 - 1000 r_2_1_3 >= -1001
t_2_1 - t_2_3 - 1000.000000 u_2_1_3 - 2.408768 s_2_3  + 1.204384 s_2_8  + 1.204384 s_2_7  + 2000.000000 r_2_1_3 > -998.029143
s_1_1 + s_1_4 + 1000 r_1_1_4 >= 2
- s_1_1 - s_1_4 - 1000 r_1_1_4 >= -1001
t_1_1 - t_1_4 - 1000.000000 u_1_1_4 - 1.212509 s_1_4  + 1.212509 s_1_7  + 2000.000000 r_1_1_4 > -999.371122
s_2_1 + s_2_4 + 1000 r_2_1_4 >= 2
- s_2_1 - s_2_4 - 1000 r_2_1_4 >= -1001
t_2_1 - t_2_4 - 1000.000000 u_2_1_4 - 1.204384 s_2_4  + 1.204384 s_2_7  + 2000.000000 r_2_1_4 > -997.241018
s_1_1 + s_1_5 + 1000 r_1_1_5 >= 2
- s_1_1 - s_1_5 - 1000 r_1_1_5 >= -1001
t_1_1 - t_1_5 - 1000.000000 u_1_1_5 - 1.212509 s_1_5  + 1.212509 s_1_8  + 2000.000000 r_1_1_5 > -999.456200
s_2_1 + s_2_5 + 1000 r_2_1_5 >= 2
- s_2_1 - s_2_5 - 1000 r_2_1_5 >= -1001
t_2_1 - t_2_5 - 1000.000000 u_2_1_5 - 1.204384 s_2_5  + 1.204384 s_2_8  + 2000.000000 r_2_1_5 > -995.598554
t_1_6 - t_1_1 - 1002.425019 s_1_1  + 1.212509 s_1_8  + 1.212509 s_1_7  > -998.546400
t_1_6 - t_2_1 - 1002.408768 s_2_1  + 1.204384 s_2_8  + 1.204384 s_2_7  > -990.587103
t_2_6 - t_1_1 - 1002.425019 s_1_1  + 1.212509 s_1_8  + 1.212509 s_1_7  > -998.546400
t_2_6 - t_2_1 - 1002.408768 s_2_1  + 1.204384 s_2_8  + 1.204384 s_2_7  > -990.587103
t_1_1 - t_1_7 - 1000.000000 s_1_7  > -998.314900
t_1_1 - t_2_7 - 1000.000000 s_2_7  > -996.555557
t_2_1 - t_1_7 - 1000.000000 s_1_7  > -998.314900
t_2_1 - t_2_7 - 1000.000000 s_2_7  > -996.555557
t_1_1 - t_1_8 - 1000.000000 s_1_8  > -998.649500
t_1_1 - t_2_8 - 1000.000000 s_2_8  > -996.611856
t_2_1 - t_1_8 - 1000.000000 s_1_8  > -998.649500
t_2_1 - t_2_8 - 1000.000000 s_2_8  > -996.611856
s_1_2 + s_1_1 + 1000 r_1_1_2 >= 2
- s_1_2 - s_1_1 - 1000 r_1_1_2 >= -1001
t_1_2 - t_1_1 + 1000.000000 u_1_1_2 - 2.425019 s_1_1  + 1.212509 s_1_8  + 1.212509 s_1_7  + 2000.000000 r_1_1_2 > 1.453600
s_2_2 + s_2_1 + 1000 r_2_1_2 >= 2
- s_2_2 - s_2_1 - 1000 r_2_1_2 >= -1001
t_2_2 - t_2_1 + 1000.000000 u_2_1_2 - 2.408768 s_2_1  + 1.204384 s_2_8  + 1.204384 s_2_7  + 2000.000000 r_2_1_2 > 9.412897
s_1_2 + s_1_3 + 1000 r_1_2_3 >= 2
- s_1_2 - s_1_3 - 1000 r_1_2_3 >= -1001
t_1_2 - t_1_3 - 1000.000000 u_1_2_3 - 2.425019 s_1_3  + 1.212509 s_1_8  + 1.212509 s_1_7  + 2000.000000 r_1_2_3 > -999.647300
s_2_2 + s_2_3 + 1000 r_2_2_3 >= 2
- s_2_2 - s_2_3 - 1000 r_2_2_3 >= -1001
t_2_2 - t_2_3 - 1000.000000 u_2_2_3 - 2.408768 s_2_3  + 1.204384 s_2_8  + 1.204384 s_2_7  + 2000.000000 r_2_2_3 > -998.029143
s_1_2 + s_1_4 + 1000 r_1_2_4 >= 2
- s_1_2 - s_1_4 - 1000 r_1_2_4 >= -1001
t_1_2 - t_1_4 - 1000.000000 u_1_2_4 - 1.212509 s_1_4  + 1.212509 s_1_7  + 2000.000000 r_1_2_4 > -999.371122
s_2_2 + s_2_4 + 1000 r_2_2_4 >= 2
- s_2_2 - s_2_4 - 1000 r_2_2_4 >= -1001
t_2_2 - t_2_4 - 1000.000000 u_2_2_4 - 1.204384 s_2_4  + 1.204384 s_2_7  + 2000.000000 r_2_2_4 > -997.241018
s_1_2 + s_1_5 + 1000 r_1_2_5 >= 2
- s_1_2 - s_1_5 - 1000 r_1_2_5 >= -1001
t_1_2 - t_1_5 - 1000.000000 u_1_2_5 - 1.212509 s_1_5  + 1.212509 s_1_8  + 2000.000000 r_1_2_5 > -999.456200
s_2_2 + s_2_5 + 1000 r_2_2_5 >= 2
- s_2_2 - s_2_5 - 1000 r_2_2_5 >= -1001
t_2_2 - t_2_5 - 1000.000000 u_2_2_5 - 1.204384 s_2_5  + 1.204384 s_2_8  + 2000.000000 r_2_2_5 > -995.598554
t_1_6 - t_1_2 - 1001.212509 s_1_2  + 1.212509 s_1_7  > -998.517622
t_1_6 - t_2_2 - 1001.204384 s_2_2  + 1.204384 s_2_7  > -991.173915
t_2_6 - t_1_2 - 1001.212509 s_1_2  + 1.212509 s_1_7  > -998.517622
t_2_6 - t_2_2 - 1001.204384 s_2_2  + 1.204384 s_2_7  > -991.173915
t_1_2 - t_1_7 - 1000.000000 s_1_7  > -998.314900
t_1_2 - t_2_7 - 1000.000000 s_2_7  > -996.555557
t_2_2 - t_1_7 - 1000.000000 s_1_7  > -998.314900
t_2_2 - t_2_7 - 1000.000000 s_2_7  > -996.555557
s_1_2 + s_1_8 + 1000 r_1_2_8 >= 2
- s_1_2 - s_1_8 - 1000 r_1_2_8 >= -1001
t_1_2 - t_1_8 - 1000.000000 u_1_2_8 - 0.000000 s_1_8  + 2000.000000 r_1_2_8 > -998.649500
s_2_2 + s_2_8 + 1000 r_2_2_8 >= 2
- s_2_2 - s_2_8 - 1000 r_2_2_8 >= -1001
t_2_2 - t_2_8 - 1000.000000 u_2_2_8 - 0.000000 s_2_8  + 2000.000000 r_2_2_8 > -996.611856
s_1_3 + s_1_1 + 1000 r_1_1_3 >= 2
- s_1_3 - s_1_1 - 1000 r_1_1_3 >= -1001
t_1_3 - t_1_1 + 1000.000000 u_1_1_3 - 2.425019 s_1_1  + 1.212509 s_1_8  + 1.212509 s_1_7  + 2000.000000 r_1_1_3 > 1.453600
s_2_3 + s_2_1 + 1000 r_2_1_3 >= 2
- s_2_3 - s_2_1 - 1000 r_2_1_3 >= -1001
t_2_3 - t_2_1 + 1000.000000 u_2_1_3 - 2.408768 s_2_1  + 1.204384 s_2_8  + 1.204384 s_2_7  + 2000.000000 r_2_1_3 > 9.412897
s_1_3 + s_1_2 + 1000 r_1_2_3 >= 2
- s_1_3 - s_1_2 - 1000 r_1_2_3 >= -1001
t_1_3 - t_1_2 + 1000.000000 u_1_2_3 - 1.212509 s_1_2  + 1.212509 s_1_7  + 2000.000000 r_1_2_3 > 1.482378
s_2_3 + s_2_2 + 1000 r_2_2_3 >= 2
- s_2_3 - s_2_2 - 1000 r_2_2_3 >= -1001
t_2_3 - t_2_2 + 1000.000000 u_2_2_3 - 1.204384 s_2_2  + 1.204384 s_2_7  + 2000.000000 r_2_2_3 > 8.826085
s_1_3 + s_1_4 + 1000 r_1_3_4 >= 2
- s_1_3 - s_1_4 - 1000 r_1_3_4 >= -1001
t_1_3 - t_1_4 - 1000.000000 u_1_3_4 - 1.212509 s_1_4  + 1.212509 s_1_7  + 2000.000000 r_1_3_4 > -999.371122
s_2_3 + s_2_4 + 1000 r_2_3_4 >= 2
- s_2_3 - s_2_4 - 1000 r_2_3_4 >= -1001
t_2_3 - t_2_4 - 1000.000000 u_2_3_4 - 1.204384 s_2_4  + 1.204384 s_2_7  + 2000.000000 r_2_3_4 > -997.241018
s_1_3 + s_1_5 + 1000 r_1_3_5 >= 2
- s_1_3 - s_1_5 - 1000 r_1_3_5 >= -1001
t_1_3 - t_1_5 - 1000.000000 u_1_3_5 - 1.212509 s_1_5  + 1.212509 s_1_8  + 2000.000000 r_1_3_5 > -999.456200
s_2_3 + s_2_5 + 1000 r_2_3_5 >= 2
- s_2_3 - s_2_5 - 1000 r_2_3_5 >= -1001
t_2_3 - t_2_5 - 1000.000000 u_2_3_5 - 1.204384 s_2_5  + 1.204384 s_2_8  + 2000.000000 r_2_3_5 > -995.598554
t_1_6 - t_1_3 - 1002.425019 s_1_3  + 1.212509 s_1_8  + 1.212509 s_1_7  > -999.647300
t_1_6 - t_2_3 - 1002.408768 s_2_3  + 1.204384 s_2_8  + 1.204384 s_2_7  > -998.029143
t_2_6 - t_1_3 - 1002.425019 s_1_3  + 1.212509 s_1_8  + 1.212509 s_1_7  > -999.647300
t_2_6 - t_2_3 - 1002.408768 s_2_3  + 1.204384 s_2_8  + 1.204384 s_2_7  > -998.029143
t_1_3 - t_1_7 - 1000.000000 s_1_7  > -998.314900
t_1_3 - t_2_7 - 1000.000000 s_2_7  > -996.555557
t_2_3 - t_1_7 - 1000.000000 s_1_7  > -998.314900
t_2_3 - t_2_7 - 1000.000000 s_2_7  > -996.555557
t_1_3 - t_1_8 - 1000.000000 s_1_8  > -998.649500
t_1_3 - t_2_8 - 1000.000000 s_2_8  > -996.611856
t_2_3 - t_1_8 - 1000.000000 s_1_8  > -998.649500
t_2_3 - t_2_8 - 1000.000000 s_2_8  > -996.611856
s_1_4 + s_1_1 + 1000 r_1_1_4 >= 2
- s_1_4 - s_1_1 - 1000 r_1_1_4 >= -1001
t_1_4 - t_1_1 + 1000.000000 u_1_1_4 - 2.425019 s_1_1  + 1.212509 s_1_8  + 1.212509 s_1_7  + 2000.000000 r_1_1_4 > 1.453600
s_2_4 + s_2_1 + 1000 r_2_1_4 >= 2
- s_2_4 - s_2_1 - 1000 r_2_1_4 >= -1001
t_2_4 - t_2_1 + 1000.000000 u_2_1_4 - 2.408768 s_2_1  + 1.204384 s_2_8  + 1.204384 s_2_7  + 2000.000000 r_2_1_4 > 9.412897
s_1_4 + s_1_2 + 1000 r_1_2_4 >= 2
- s_1_4 - s_1_2 - 1000 r_1_2_4 >= -1001
t_1_4 - t_1_2 + 1000.000000 u_1_2_4 - 1.212509 s_1_2  + 1.212509 s_1_7  + 2000.000000 r_1_2_4 > 1.482378
s_2_4 + s_2_2 + 1000 r_2_2_4 >= 2
- s_2_4 - s_2_2 - 1000 r_2_2_4 >= -1001
t_2_4 - t_2_2 + 1000.000000 u_2_2_4 - 1.204384 s_2_2  + 1.204384 s_2_7  + 2000.000000 r_2_2_4 > 8.826085
s_1_4 + s_1_3 + 1000 r_1_3_4 >= 2
- s_1_4 - s_1_3 - 1000 r_1_3_4 >= -1001
t_1_4 - t_1_3 + 1000.000000 u_1_3_4 - 2.425019 s_1_3  + 1.212509 s_1_8  + 1.212509 s_1_7  + 2000.000000 r_1_3_4 > 0.352700
s_2_4 + s_2_3 + 1000 r_2_3_4 >= 2
- s_2_4 - s_2_3 - 1000 r_2_3_4 >= -1001
t_2_4 - t_2_3 + 1000.000000 u_2_3_4 - 2.408768 s_2_3  + 1.204384 s_2_8  + 1.204384 s_2_7  + 2000.000000 r_2_3_4 > 1.970857
s_1_4 + s_1_5 + 1000 r_1_4_5 >= 2
- s_1_4 - s_1_5 - 1000 r_1_4_5 >= -1001
t_1_4 - t_1_5 - 1000.000000 u_1_4_5 - 1.212509 s_1_5  + 1.212509 s_1_8  + 2000.000000 r_1_4_5 > -999.456200
s_2_4 + s_2_5 + 1000 r_2_4_5 >= 2
- s_2_4 - s_2_5 - 1000 r_2_4_5 >= -1001
t_2_4 - t_2_5 - 1000.000000 u_2_4_5 - 1.204384 s_2_5  + 1.204384 s_2_8  + 2000.000000 r_2_4_5 > -995.598554
t_1_6 - t_1_4 - 1001.212509 s_1_4  + 1.212509 s_1_7  > -999.371122
t_1_6 - t_2_4 - 1001.204384 s_2_4  + 1.204384 s_2_7  > -997.241018
t_2_6 - t_1_4 - 1001.212509 s_1_4  + 1.212509 s_1_7  > -999.371122
t_2_6 - t_2_4 - 1001.204384 s_2_4  + 1.204384 s_2_7  > -997.241018
t_1_4 - t_1_7 - 1000.000000 s_1_7  > -998.314900
t_1_4 - t_2_7 - 1000.000000 s_2_7  > -996.555557
t_2_4 - t_1_7 - 1000.000000 s_1_7  > -998.314900
t_2_4 - t_2_7 - 1000.000000 s_2_7  > -996.555557
s_1_4 + s_1_8 + 1000 r_1_4_8 >= 2
- s_1_4 - s_1_8 - 1000 r_1_4_8 >= -1001
t_1_4 - t_1_8 - 1000.000000 u_1_4_8 - 0.000000 s_1_8  + 2000.000000 r_1_4_8 > -998.649500
s_2_4 + s_2_8 + 1000 r_2_4_8 >= 2
- s_2_4 - s_2_8 - 1000 r_2_4_8 >= -1001
t_2_4 - t_2_8 - 1000.000000 u_2_4_8 - 0.000000 s_2_8  + 2000.000000 r_2_4_8 > -996.611856
s_1_5 + s_1_1 + 1000 r_1_1_5 >= 2
- s_1_5 - s_1_1 - 1000 r_1_1_5 >= -1001
t_1_5 - t_1_1 + 1000.000000 u_1_1_5 - 2.425019 s_1_1  + 1.212509 s_1_8  + 1.212509 s_1_7  + 2000.000000 r_1_1_5 > 1.453600
s_2_5 + s_2_1 + 1000 r_2_1_5 >= 2
- s_2_5 - s_2_1 - 1000 r_2_1_5 >= -1001
t_2_5 - t_2_1 + 1000.000000 u_2_1_5 - 2.408768 s_2_1  + 1.204384 s_2_8  + 1.204384 s_2_7  + 2000.000000 r_2_1_5 > 9.412897
s_1_5 + s_1_2 + 1000 r_1_2_5 >= 2
- s_1_5 - s_1_2 - 1000 r_1_2_5 >= -1001
t_1_5 - t_1_2 + 1000.000000 u_1_2_5 - 1.212509 s_1_2  + 1.212509 s_1_7  + 2000.000000 r_1_2_5 > 1.482378
s_2_5 + s_2_2 + 1000 r_2_2_5 >= 2
- s_2_5 - s_2_2 - 1000 r_2_2_5 >= -1001
t_2_5 - t_2_2 + 1000.000000 u_2_2_5 - 1.204384 s_2_2  + 1.204384 s_2_7  + 2000.000000 r_2_2_5 > 8.826085
s_1_5 + s_1_3 + 1000 r_1_3_5 >= 2
- s_1_5 - s_1_3 - 1000 r_1_3_5 >= -1001
t_1_5 - t_1_3 + 1000.000000 u_1_3_5 - 2.425019 s_1_3  + 1.212509 s_1_8  + 1.212509 s_1_7  + 2000.000000 r_1_3_5 > 0.352700
s_2_5 + s_2_3 + 1000 r_2_3_5 >= 2
- s_2_5 - s_2_3 - 1000 r_2_3_5 >= -1001
t_2_5 - t_2_3 + 1000.000000 u_2_3_5 - 2.408768 s_2_3  + 1.204384 s_2_8  + 1.204384 s_2_7  + 2000.000000 r_2_3_5 > 1.970857
s_1_5 + s_1_4 + 1000 r_1_4_5 >= 2
- s_1_5 - s_1_4 - 1000 r_1_4_5 >= -1001
t_1_5 - t_1_4 + 1000.000000 u_1_4_5 - 1.212509 s_1_4  + 1.212509 s_1_7  + 2000.000000 r_1_4_5 > 0.628878
s_2_5 + s_2_4 + 1000 r_2_4_5 >= 2
- s_2_5 - s_2_4 - 1000 r_2_4_5 >= -1001
t_2_5 - t_2_4 + 1000.000000 u_2_4_5 - 1.204384 s_2_4  + 1.204384 s_2_7  + 2000.000000 r_2_4_5 > 2.758982
t_1_6 - t_1_5 - 1001.212509 s_1_5  + 1.212509 s_1_8  > -999.456200
t_1_6 - t_2_5 - 1001.204384 s_2_5  + 1.204384 s_2_8  > -995.598554
t_2_6 - t_1_5 - 1001.212509 s_1_5  + 1.212509 s_1_8  > -999.456200
t_2_6 - t_2_5 - 1001.204384 s_2_5  + 1.204384 s_2_8  > -995.598554
s_1_5 + s_1_7 + 1000 r_1_5_7 >= 2
- s_1_5 - s_1_7 - 1000 r_1_5_7 >= -1001
t_1_5 - t_1_7 - 1000.000000 u_1_5_7 - 0.000000 s_1_7  + 2000.000000 r_1_5_7 > -998.314900
s_2_5 + s_2_7 + 1000 r_2_5_7 >= 2
- s_2_5 - s_2_7 - 1000 r_2_5_7 >= -1001
t_2_5 - t_2_7 - 1000.000000 u_2_5_7 - 0.000000 s_2_7  + 2000.000000 r_2_5_7 > -996.555557
t_1_5 - t_1_8 - 1000.000000 s_1_8  > -998.649500
t_1_5 - t_2_8 - 1000.000000 s_2_8  > -996.611856
t_2_5 - t_1_8 - 1000.000000 s_1_8  > -998.649500
t_2_5 - t_2_8 - 1000.000000 s_2_8  > -996.611856
t_1_6 - t_1_7 - 1000.000000 s_1_7  > -998.314900
t_1_6 - t_2_7 - 1000.000000 s_2_7  > -996.555557
t_2_6 - t_1_7 - 1000.000000 s_1_7  > -998.314900
t_2_6 - t_2_7 - 1000.000000 s_2_7  > -996.555557
s_1_7 + s_1_5 + 1000 r_1_5_7 >= 2
- s_1_7 - s_1_5 - 1000 r_1_5_7 >= -1001
t_1_7 - t_1_5 + 1000.000000 u_1_5_7 - 1.212509 s_1_5  + 1.212509 s_1_8  + 2000.000000 r_1_5_7 > 0.543800
s_2_7 + s_2_5 + 1000 r_2_5_7 >= 2
- s_2_7 - s_2_5 - 1000 r_2_5_7 >= -1001
t_2_7 - t_2_5 + 1000.000000 u_2_5_7 - 1.204384 s_2_5  + 1.204384 s_2_8  + 2000.000000 r_2_5_7 > 4.401446
s_1_7 + s_1_8 + 1000 r_1_7_8 >= 2
- s_1_7 - s_1_8 - 1000 r_1_7_8 >= -1001
t_1_7 - t_1_8 - 1000.000000 u_1_7_8 - 0.000000 s_1_8  + 2000.000000 r_1_7_8 > -998.649500
s_2_7 + s_2_8 + 1000 r_2_7_8 >= 2
- s_2_7 - s_2_8 - 1000 r_2_7_8 >= -1001
t_2_7 - t_2_8 - 1000.000000 u_2_7_8 - 0.000000 s_2_8  + 2000.000000 r_2_7_8 > -996.611856
s_1_8 + s_1_2 + 1000 r_1_2_8 >= 2
- s_1_8 - s_1_2 - 1000 r_1_2_8 >= -1001
t_1_8 - t_1_2 + 1000.000000 u_1_2_8 - 1.212509 s_1_2  + 1.212509 s_1_7  + 2000.000000 r_1_2_8 > 1.482378
s_2_8 + s_2_2 + 1000 r_2_2_8 >= 2
- s_2_8 - s_2_2 - 1000 r_2_2_8 >= -1001
t_2_8 - t_2_2 + 1000.000000 u_2_2_8 - 1.204384 s_2_2  + 1.204384 s_2_7  + 2000.000000 r_2_2_8 > 8.826085
s_1_8 + s_1_4 + 1000 r_1_4_8 >= 2
- s_1_8 - s_1_4 - 1000 r_1_4_8 >= -1001
t_1_8 - t_1_4 + 1000.000000 u_1_4_8 - 1.212509 s_1_4  + 1.212509 s_1_7  + 2000.000000 r_1_4_8 > 0.628878
s_2_8 + s_2_4 + 1000 r_2_4_8 >= 2
- s_2_8 - s_2_4 - 1000 r_2_4_8 >= -1001
t_2_8 - t_2_4 + 1000.000000 u_2_4_8 - 1.204384 s_2_4  + 1.204384 s_2_7  + 2000.000000 r_2_4_8 > 2.758982
s_1_8 + s_1_7 + 1000 r_1_7_8 >= 2
- s_1_8 - s_1_7 - 1000 r_1_7_8 >= -1001
t_1_8 - t_1_7 + 1000.000000 u_1_7_8 - 0.000000 s_1_7  + 2000.000000 r_1_7_8 > 1.685100
s_2_8 + s_2_7 + 1000 r_2_7_8 >= 2
- s_2_8 - s_2_7 - 1000 r_2_7_8 >= -1001
t_2_8 - t_2_7 + 1000.000000 u_2_7_8 - 0.000000 s_2_7  + 2000.000000 r_2_7_8 > 3.444443
Binary
s_1_1
s_2_1
s_1_2
s_2_2
s_1_3
s_2_3
s_1_4
s_2_4
s_1_5
s_2_5
s_1_6
s_2_6
s_1_7
s_2_7
s_1_8
s_2_8
u_1_1_2
r_1_1_2
u_2_1_2
r_2_1_2
u_1_1_3
r_1_1_3
u_2_1_3
r_2_1_3
u_1_1_4
r_1_1_4
u_2_1_4
r_2_1_4
u_1_1_5
r_1_1_5
u_2_1_5
r_2_1_5
u_1_2_3
r_1_2_3
u_2_2_3
r_2_2_3
u_1_2_4
r_1_2_4
u_2_2_4
r_2_2_4
u_1_2_5
r_1_2_5
u_2_2_5
r_2_2_5
u_1_2_8
r_1_2_8
u_2_2_8
r_2_2_8
u_1_3_4
r_1_3_4
u_2_3_4
r_2_3_4
u_1_3_5
r_1_3_5
u_2_3_5
r_2_3_5
u_1_4_5
r_1_4_5
u_2_4_5
r_2_4_5
u_1_4_8
r_1_4_8
u_2_4_8
r_2_4_8
u_1_5_7
r_1_5_7
u_2_5_7
r_2_5_7
u_1_7_8
r_1_7_8
u_2_7_8
r_2_7_8

End
